param c_r :=
1 1 0.0
2 1 0.06
3 1 0.0
4 1 0.06
5 1 0.0
6 1 0.06
7 1 0.0
8 1 0.06
9 1 0.0
10 1 5.76
11 1 20.85
12 1 0.0
13 1 5.76
14 1 20.85
15 1 0.0
16 1 5.76
17 1 20.85
18 1 0.0
19 1 5.76
20 1 20.85
21 1 0.0
22 1 5.76
23 1 20.85
24 1 0.0
25 1 5.76
26 1 20.85
27 1 0.0
28 1 0.06
29 1 0.0
30 1 0.06
;
